MisInstancias/extremismo4.txt
25
5
8,5,0,7,5
0.618,0.692,0.598,0.601,0.652
12.701,10.413,12.742,8.421,10.071
0,5.678,4.909,3.991,5.094
3.939,0,5.122,4.801,3.188
3.099,4.791,0,4.095,3.141
4.512,3.831,4.591,0,4.598
3.698,4.154,5.135,5.037,0
167.02
10
